50

100 17 301
100 15 347
99 21 305
96 13 354
96 25 306
93 26 286
91 25 322
90 17 339
90 4 318
87 1 315
84 18 254
83 17 269
80 16 343
80 24 332
80 8 257
75 13 272
74 1 324
72 15 277
72 21 332
71 15 311
71 13 246
70 3 306
69 20 292
66 19 339
65 9 353
63 6 273
60 13 282
58 11 279
57 3 249
56 13 354
54 14 336
54 7 317
53 13 297
53 12 359
53 9 192
51 7 351
51 16 162
49 10 199
46 11 344
43 7 230
40 6 151
39 5 356
38 6 209
37 12 347
37 12 317
34 8 166
33 5 248
33 1 147
31 1 207
31 1 316
